
List of user-set options:

                                    Name   Value                used
                           compl_inf_tol = 1                     yes
                         constr_viol_tol = 1                     yes
                            dual_inf_tol = 1000                  yes
                           linear_solver = ma97                  yes
                              ma86_small = 1e-30                  no
                                  ma86_u = 0.0001                 no
                              ma97_order = best                  yes
                              ma97_small = 1e-30                 yes
                            ma97_switch1 = at_start              yes
                            ma97_switch2 = od_hd_reuse           yes
                                  ma97_u = 1e-06                 yes
                               ma97_umax = 0.5                   yes
                                max_iter = 1000                  yes
                    max_refinement_steps = 20                    yes
                    min_refinement_steps = 5                     yes
                                 mu_init = 1e-06                 yes
           mu_superlinear_decrease_power = 1.25                  yes
                   nlp_scaling_min_value = 1e-08                 yes
                        option_file_name = Preset_Case_334_pf.opt  yes
                             output_file = ./tmp/Preset_Case_334_pf.output  yes
                      print_user_options = yes                   yes
        required_infeasibility_reduction = 1                      no
                                     tol = 1e-08                 yes
                   warm_start_bound_frac = 1e-20                 yes
                   warm_start_bound_push = 1e-20                 yes
                   warm_start_init_point = yes                   yes
              warm_start_mult_bound_push = 1e-20                 yes
                warm_start_mult_init_max = 1e+40                 yes
             warm_start_slack_bound_frac = 1e-20                 yes
             warm_start_slack_bound_push = 1e-20                 yes

******************************************************************************
This program contains Ipopt, a library for large-scale nonlinear optimization.
 Ipopt is released as open source code under the Eclipse Public License (EPL).
         For more information visit http://projects.coin-or.org/Ipopt
******************************************************************************

This is Ipopt version 3.12.10, running with linear solver ma97.

Number of nonzeros in equality constraint Jacobian...:   123443
Number of nonzeros in inequality constraint Jacobian.:      213
Number of nonzeros in Lagrangian Hessian.............:    49069

Total number of variables............................:    31591
                     variables with only lower bounds:    12912
                variables with lower and upper bounds:    15130
                     variables with only upper bounds:        0
Total number of equality constraints.................:    31483
Total number of inequality constraints...............:       25
        inequality constraints with only lower bounds:        4
   inequality constraints with lower and upper bounds:        0
        inequality constraints with only upper bounds:       21

iter    objective    inf_pr   inf_du lg(mu)  ||d||  lg(rg) alpha_du alpha_pr  ls
   0 -5.4445391e+00 4.63e-03 1.02e+00  -6.0 0.00e+00    -  0.00e+00 0.00e+00   0
   1 -5.4438824e+00 1.35e+00 1.11e+01  -6.0 4.00e+05    -  7.90e-05 4.47e-04h  2
   2 -5.4440163e+00 1.35e+00 4.93e+01  -6.0 2.43e+01  -4.0 2.13e-01 9.90e-04h  1
   3 -5.7629016e+00 5.57e+00 2.07e+03  -6.0 3.76e+03    -  9.81e-02 3.86e-01h  1
   4 -5.8027972e+00 5.41e+00 1.94e+03  -6.0 1.72e+03    -  1.01e-01 7.74e-02h  1
   5 -6.0960939e+00 1.87e+01 2.19e+03  -6.0 1.65e+03    -  6.65e-01 6.35e-01h  1
   6 -6.0402418e+00 6.45e-02 1.03e+04  -6.0 3.87e+01  -4.5 1.58e-01 1.00e+00h  1
   7 -6.1293461e+00 2.71e+01 6.42e+02  -6.0 1.31e+03    -  4.03e-01 1.00e+00h  1
   8 -6.1287973e+00 2.59e+01 6.14e+02  -6.0 7.14e+02    -  4.46e-02 4.44e-02h  1
   9 -6.0672330e+00 5.68e-01 4.82e+01  -6.0 8.31e+01  -5.0 2.21e-01 1.00e+00h  1
iter    objective    inf_pr   inf_du lg(mu)  ||d||  lg(rg) alpha_du alpha_pr  ls
  10 -6.0732376e+00 8.55e-02 3.06e+01  -6.0 1.47e+01  -3.6 2.72e-01 1.00e+00h  1
  11 -6.0731498e+00 8.33e-02 1.15e+01  -6.0 1.68e+00  -4.1 9.36e-01 2.67e-02h  1
  12 -6.0949411e+00 2.51e+00 4.63e+02  -6.0 6.56e+02    -  3.74e-02 1.00e+00f  1
  13 -6.0930187e+00 2.08e+00 3.70e+02  -6.0 1.31e+00  -4.6 9.97e-01 1.72e-01h  1
  14 -6.0837507e+00 7.47e-03 1.38e+01  -6.0 2.00e+00  -5.1 1.00e+00 1.00e+00h  1
  15 -6.0841926e+00 8.95e-03 3.48e-02  -6.0 5.71e+00  -5.5 1.00e+00 1.00e+00h  1
  16 -6.0857733e+00 4.41e-02 2.16e-01  -6.0 1.68e+01  -6.0 1.00e+00 1.00e+00h  1
  17 -6.0899440e+00 9.71e-02 1.06e+00  -6.0 4.87e+01  -6.5 1.00e+00 1.00e+00h  1
  18 -6.0993934e+00 3.08e-01 3.35e+00  -6.0 1.35e+02  -7.0 1.00e+00 1.00e+00h  1
  19 -6.1189615e+00 1.65e+00 1.64e+01  -6.0 4.10e+02  -7.4 1.00e+00 1.00e+00h  1
iter    objective    inf_pr   inf_du lg(mu)  ||d||  lg(rg) alpha_du alpha_pr  ls
  20 -6.1231300e+00 1.47e+00 1.81e+01  -6.0 8.62e+02  -7.9 6.38e-01 1.24e-01h  1
  21 -6.1349450e+00 1.01e+00 8.85e+00  -6.0 3.72e+02  -7.5 1.00e+00 1.00e+00h  1
  22 -6.1386208e+00 1.26e+00 1.13e+03  -6.0 1.95e+03  -8.0 8.47e-02 5.18e-02h  1
  23 -6.1521164e+00 1.39e+00 1.24e+02  -6.0 3.47e+02  -7.5 1.00e+00 1.00e+00h  1
  24 -6.1564064e+00 1.16e+00 2.27e+04  -6.0 6.80e+02  -8.0 4.58e-01 2.04e-01h  1
  25 -6.1665141e+00 9.25e-01 3.26e+04  -6.0 3.04e+02  -7.6 1.00e+00 6.65e-01h  1
  26 -6.1690377e+00 7.76e-01 5.58e+05  -6.0 1.80e+02  -7.2 4.18e-02 2.01e-01h  1
  27 -6.1690666e+00 7.75e-01 5.59e+05  -6.0 2.78e+03  -7.6 6.24e-02 1.51e-04h  1
  28 -6.1900506e+00 1.34e+00 1.36e+06  -6.0 2.31e+02  -7.2 2.72e-01 9.21e-01f  1
  29 -6.1900531e+00 1.34e+00 1.35e+06  -6.0 3.01e+02  -7.7 9.04e-04 3.47e-05h  1
iter    objective    inf_pr   inf_du lg(mu)  ||d||  lg(rg) alpha_du alpha_pr  ls
  30 -6.1952634e+00 1.20e+00 9.99e+05  -6.0 3.00e+02  -7.3 3.55e-01 1.43e-01f  1
  31 -6.1999637e+00 1.10e+00 7.32e+05  -6.0 3.51e+02  -7.7 9.12e-05 2.20e-01h  1
  32 -6.1986218e+00 6.06e-01 7.88e+06  -6.0 1.35e+02  -7.3 4.21e-02 4.53e-01h  1
  33 -6.1999584e+00 2.10e-01 2.52e+03  -6.0 3.15e+02  -7.8 6.64e-01 1.00e+00h  1
  34 -6.2005953e+00 1.26e-01 1.18e+01  -6.0 1.08e+02  -7.4 8.48e-01 1.00e+00h  1
  35 -6.2004277e+00 9.31e-03 6.14e-02  -6.0 4.00e+01  -6.9 1.00e+00 1.00e+00h  1
  36 -6.2010805e+00 5.24e-02 2.23e-01  -6.0 1.06e+02  -7.4 1.00e+00 1.00e+00h  1
  37 -6.2012299e+00 1.63e-02 2.19e-01  -6.0 3.70e+01  -7.0 1.00e+00 1.00e+00h  1
  38 -6.2013372e+00 3.03e-03 4.07e-02  -6.0 1.34e+01  -6.6 1.00e+00 1.00e+00h  1
  39 -6.2016526e+00 8.09e-02 1.24e+00  -6.0 6.72e+01  -7.1 1.00e+00 1.00e+00h  1
iter    objective    inf_pr   inf_du lg(mu)  ||d||  lg(rg) alpha_du alpha_pr  ls
  40 -6.2021505e+00 1.65e-02 9.39e-01  -6.0 3.02e+01  -6.6 1.00e+00 1.00e+00h  1
  41 -6.2046914e+00 8.19e-01 3.74e+01  -6.0 2.13e+02  -7.1 5.72e-01 1.00e+00h  1
  42 -6.2280047e+00 7.06e+00 5.46e+02  -6.0 1.87e+03  -7.6 1.02e-01 3.25e-01h  1
  43 -6.2484543e+00 3.49e+00 7.02e+02  -6.0 1.17e+03    -  2.38e-01 9.76e-01h  1
  44 -6.2483874e+00 3.49e+00 6.93e+02  -6.0 4.43e+03    -  1.49e-01 1.27e-02h  5
  45 -6.2446635e+00 2.63e+00 1.09e+02  -6.0 4.69e+02    -  8.19e-01 7.29e-01h  1
  46 -6.2467625e+00 2.63e+00 3.70e+01  -6.0 4.51e+02    -  1.00e+00 1.00e+00h  1
  47 -6.2459433e+00 2.45e-01 2.40e+01  -6.0 1.93e+02    -  8.49e-01 1.00e+00h  1
  48 -6.2454344e+00 8.63e-03 3.03e-01  -6.0 3.60e+01    -  1.00e+00 1.00e+00h  1
  49 -6.2454207e+00 1.71e-05 1.40e-03  -6.0 1.65e+00    -  1.00e+00 1.00e+00h  1
iter    objective    inf_pr   inf_du lg(mu)  ||d||  lg(rg) alpha_du alpha_pr  ls
  50 -6.2454207e+00 2.82e-10 1.03e-09  -6.0 2.08e-03    -  1.00e+00 1.00e+00h  1
  51 -6.2454899e+00 8.22e-03 6.20e+01  -7.5 3.21e+01    -  9.53e-01 7.38e-01h  1
  52 -6.2454965e+00 1.88e-03 1.03e+01  -7.5 8.70e+00    -  1.00e+00 8.64e-01h  1
  53 -6.2454961e+00 1.71e-05 4.79e-03  -7.5 1.18e+00    -  1.00e+00 1.00e+00h  1
  54 -6.2454961e+00 2.81e-10 8.93e-10  -7.5 9.98e-04    -  1.00e+00 1.00e+00h  1
  55 -6.2454977e+00 1.08e-05 6.58e-01  -9.0 1.04e+00    -  9.23e-01 8.51e-01h  1
  56 -6.2454979e+00 3.31e-07 4.21e-01  -9.0 1.55e-01    -  8.95e-01 1.00e+00f  1
  57 -6.2454979e+00 4.25e-10 1.95e-08  -9.0 4.42e-05    -  1.00e+00 1.00e+00h  1
  58 -6.2454979e+00 2.93e-10 3.07e-10  -9.0 6.90e-06    -  1.00e+00 1.00e+00h  1

Number of Iterations....: 58

                                   (scaled)                 (unscaled)
Objective...............:  -4.8792952532350489e+00   -6.2454979241408628e+00
Dual infeasibility......:   3.0726828652260255e-10    3.9330340674893128e-10
Constraint violation....:   2.9332712018874385e-10    2.9332712018874385e-10
Complementarity.........:   9.2297905401983118e-10    1.1814131891453840e-09
Overall NLP error.......:   9.2297905401983118e-10    1.1814131891453840e-09


Number of objective function evaluations             = 67
Number of objective gradient evaluations             = 59
Number of equality constraint evaluations            = 67
Number of inequality constraint evaluations          = 67
Number of equality constraint Jacobian evaluations   = 59
Number of inequality constraint Jacobian evaluations = 59
Number of Lagrangian Hessian evaluations             = 58
Total CPU secs in IPOPT (w/o function evaluations)   =    170.180
Total CPU secs in NLP function evaluations           =      2.121

EXIT: Optimal Solution Found.
